1  13
2  12
3  13
4  13
5  3
6  20
7  17
8  8
9  6
10  6
11  4
12  14
13  7
14  7
15  21
16  17
17  21
18  24
19  24
20  24
21  24
22  24
23  23
24  24
25  24
26  24
27  23
28  24
29  22
30  24
31  3
32  18
33  6
34  20
35  3
36  18
37  1
38  15
39  15
40  20
41  7
42  14
43  19
44  18
45  14
46  5
47  21
48  5
49  13
50  14
51  15
52  16
53  15
54  19
55  12
56  7
57  14
58  3
59  9
60  5
61  10
62  9
63  13
64  8
65  8
66  9
67  8
68  8
69  9
70  8
71  9
72  3
73  12
74  12
75  21
76  19
77  1
78  4
79  2
80  19
81  1
82  1
83  1
84  1
85  1
86  1
87  1
88  1
89  2
90  2
91  1
92  4
93  4
94  4
95  3
96  12
97  4
98  22
99  13
100  7
101  13
102  12
103  19
104  12
105  6
106  21
107  5
108  4
109  4
110  21
111  19
112  11
113  4
114  5
115  19
116  12
117  12
118  11
119  12
120  11
121  11
122  12
123  11
124  21
125  16
126  17
127  17
128  17
129  17
130  15
131  19
132  20
133  11
134  16
135  15
136  18
137  18
138  16
139  16
140  19
141  18
142  15
143  15
144  22
145  7
146  6
147  7
148  18
149  5
150  5
151  20
152  2
153  4
154  4
155  10
156  18
157  10
158  4
159  22
160  22
161  5
162  18
163  14
164  12
165  16
166  15
167  10
168  21
169  5
170  16
171  20
172  8
173  9
174  13
175  11
176  13
177  10
178  7
179  10
180  22
181  1
182  23
183  7
184  7
185  22
186  5
187  11
188  5
189  12
190  12